34738185803157994585012,11,1,2,06,4,1,2,09,3,1,2,013,8,1,2,03,11,1,2,05,14,1,2,08,15,1,2,03,10,1,2,02,1,1,2,05,13,1,2,015,1,1,2,01,10,1,2,05,1,1,2,012,8,1,2,08,11,1,2,02,1,1,2,05,9,1,2,013,5,1,2,015,3,1,2,06,1,1,2,07,5,1,2,04,10,1,2,06,3,1,2,012,13,1,2,02,12,1,2,03,11,1,2,010,3,1,2,04,6,1,2,01,1,1,2,011,13,1,2,08,5,1,2,015,6,1,2,013,10,1,2,010,1,1,2,05,4,1,2,09,14,1,2,08,7,1,2,06,8,1,2,013,14,1,2,015,7,1,2,04,11,1,2,07,2,1,2,02,5,1,2,010,7,1,2,09,14,1,2,04,7,1,2,05,4,1,2,05,14,1,2,015,11,1,2,04,12,1,2,0